Set parameter LicenseID to value 2609176
Set parameter TimeLimit to value 1800
Gurobi Optimizer version 11.0.3 build v11.0.3rc0 (linux64 - "Debian GNU/Linux 12 (bookworm)")

CPU model: AMD EPYC 7B12, instruction set [SSE2|AVX|AVX2]
Thread count: 4 physical cores, 8 logical processors, using up to 8 threads

Optimize a model with 1463010 rows, 176400 columns and 82222770 nonzeros
Model fingerprint: 0xa7ca2a42
Variable types: 0 continuous, 176400 integer (176400 binary)
Coefficient statistics:
  Matrix range     [1e+00, 1e+00]
  Objective range  [0e+00, 0e+00]
  Bounds range     [1e+00, 1e+00]
  RHS range        [1e+00, 1e+00]
Presolve removed 210 rows and 210 columns (presolve time = 5s) ...
Presolve removed 210 rows and 210 columns (presolve time = 12s) ...
Presolve removed 210 rows and 210 columns (presolve time = 15s) ...
Presolve removed 210 rows and 210 columns (presolve time = 21s) ...
Presolve removed 5388 rows and 210 columns (presolve time = 25s) ...
Presolve removed 5388 rows and 210 columns (presolve time = 30s) ...
Presolve removed 5388 rows and 210 columns (presolve time = 35s) ...
Presolve removed 5388 rows and 210 columns (presolve time = 40s) ...
Presolve removed 5388 rows and 210 columns (presolve time = 47s) ...
Presolve removed 5388 rows and 210 columns (presolve time = 51s) ...
Presolve removed 5388 rows and 210 columns (presolve time = 56s) ...
Presolve removed 5388 rows and 210 columns (presolve time = 62s) ...
Presolve removed 5388 rows and 210 columns (presolve time = 67s) ...
Presolve removed 5388 rows and 210 columns (presolve time = 70s) ...
Presolve removed 5388 rows and 210 columns (presolve time = 77s) ...
Presolve removed 5388 rows and 210 columns (presolve time = 80s) ...
Presolve removed 5388 rows and 210 columns (presolve time = 85s) ...
Presolve removed 5388 rows and 210 columns (presolve time = 90s) ...
Presolve removed 5388 rows and 210 columns (presolve time = 97s) ...
Presolve removed 5388 rows and 210 columns (presolve time = 101s) ...
Presolve removed 5388 rows and 210 columns
Presolve time: 100.93s
Presolved: 1457622 rows, 176190 columns, 81927088 nonzeros
Variable types: 0 continuous, 176190 integer (176190 binary)
Error: invalid user locale; possible fix is to set the system environment
       variable 'LC_ALL' to a valid locale (e.g., to 'C')

Deterministic concurrent LP optimizer: primal simplex, dual simplex, and barrier
Showing barrier log only...

